Tried aggregator 2 times.
MIP Presolve eliminated 8 rows and 5 columns.
MIP Presolve modified 36 coefficients.
Aggregator did 36 substitutions.
Reduced MIP has 127 rows, 117 columns, and 296 nonzeros.
Reduced MIP has 72 binaries, 9 generals, 0 SOSs, and 0 indicators.
Presolve time = 0.00 sec. (0.26 ticks)
Found incumbent of value 7.000000 after 0.00 sec. (0.45 ticks)
Probing fixed 9 vars, tightened 18 bounds.
Probing time = 0.00 sec. (0.24 ticks)
Tried aggregator 3 times.
MIP Presolve eliminated 13 rows and 13 columns.
Aggregator did 38 substitutions.
Reduced MIP has 76 rows, 66 columns, and 191 nonzeros.
Reduced MIP has 48 binaries, 18 generals, 0 SOSs, and 0 indicators.
Presolve time = 0.00 sec. (0.32 ticks)
Probing time = 0.00 sec. (0.10 ticks)
Tried aggregator 1 time.
Reduced MIP has 76 rows, 66 columns, and 191 nonzeros.
Reduced MIP has 48 binaries, 18 generals, 0 SOSs, and 0 indicators.
Presolve time = 0.00 sec. (0.09 ticks)
Probing time = 0.00 sec. (0.10 ticks)
Clique table members: 132.
MIP emphasis: balance optimality and feasibility.
MIP search method: dynamic search.
Parallel mode: deterministic, using up to 4 threads.
Root relaxation solution time = 0.00 sec. (0.10 ticks)

        Nodes                                         Cuts/
   Node  Left     Objective  IInf  Best Integer    Best Bound    ItCnt     Gap

*     0+    0                            7.0000        4.0000       23   42.86%
      0     0        4.0000    28        7.0000        4.0000       23   42.86%
      0     0        4.0000    10        7.0000      Cuts: 10       29   42.86%
      0     0        4.0000    18        7.0000      Cuts: 23       50   42.86%
*     0+    0                            5.0000        4.0000       50   20.00%
*     0     0      integral     0        4.0000        4.0000       50    0.00%
Elapsed time = 0.02 sec. (3.75 ticks, tree = 0.00 MB, solutions = 3)

Implied bound cuts applied:  10
Zero-half cuts applied:  1
Lift and project cuts applied:  1
Gomory fractional cuts applied:  5

Root node processing (before b&c):
  Real time             =    0.02 sec. (3.76 ticks)
Parallel b&c, 4 threads:
  Real time             =    0.00 sec. (0.00 ticks)
  Sync time (average)   =    0.00 sec.
  Wait time (average)   =    0.00 sec.
                          ------------
Total (root+branch&cut) =    0.02 sec. (3.76 ticks)
